c Source: TUDataset AIDS, graph #430
c Original: n=19, m=20
c Augmented: +8 edges, n=21 -> m=28, circuit_rank=8
c Augmented to satisfy Eulerian condition (no parallel edges)
p sp 21
e 13 18
e 16 17
e 8 16
e 3 4
e 13 14
e 8 9
e 18 19
e 9 10
e 1 6
e 4 5
e 4 8
e 11 13
e 2 3
e 13 16
e 1 5
e 1 2
e 10 11
e 9 15
e 6 7
e 11 12
e 1 4
e 7 8
e 9 20
e 15 20
e 11 21
e 12 21
e 14 16
e 17 19
